$ This puzzle obtained from: https://teachinglondoncomputing.org/cut-hive-puzzles/

language ESSENCE' 1.0

letting board_type be 1

letting height be 4
letting length be 3
letting numblocks be 4
letting blocks be 
[
    [1,2,2,3],
    [1,1,3,0],
    [1,4,3,3]
]

letting fixed be
[
    [0,0,0,0],
    [0,3,0,0],
    [0,0,2,0]
]